     Program PWSCF v.5.0.2 (svn rev. 9656) starts on 10Apr2018 at 11: 7: 1

     Current dimensions of program PWSCF are:
     Max number of different atomic species (ntypx) = 10
     Max number of k-points (npk) =  40000
     Max angular momentum in pseudopotentials (lmaxx) =  3
     Waiting for input...
     Reading input from standard input
 EFIELD CART   0.0000000000000000        0.0000000000000000        1.0000000000000000E-003
 EFIELD CRY   0.0000000000000000        0.0000000000000000        1.0000000000000000E-003
 BG1   1.0000000000000000        0.0000000000000000        0.0000000000000000
 BG1   1.0000000000000000        0.0000000000000000        0.0000000000000000
 nx_el1           1          26          51          76         101           2          27          52          77         102           3          28          53          78         103           4          29          54          79         104           5          30          55          80         105           6          31          56          81         106           7          32          57          82         107           8          33          58          83         108           9          34          59          84         109          10          35          60          85         110          11          36          61          86         111          12          37          62          87         112          13          38          63          88         113          14          39          64          89         114          15          40          65          90         115          16          41          66          91         116          17          42          67          92         117          18          43          68          93         118          19          44          69          94         119          20          45          70          95         120          21          46          71          96         121          22          47          72          97         122          23          48          73          98         123          24          49          74          99         124          25          50          75         100         125
     Found symmetry operation: I + (  0.0000 -0.5000  0.5000)
     This is a supercell, fractional translations are disabled

     bravais-lattice index     =            1
     lattice parameter (alat)  =      10.1800  a.u.
     unit-cell volume          =    1054.9778 (a.u.)^3
     number of atoms/cell      =            8
     number of atomic types    =            1
     number of electrons       =        32.00
     number of Kohn-Sham states=           16
     kinetic-energy cutoff     =      30.0000  Ry
     charge density cutoff     =     120.0000  Ry
     convergence threshold     =      1.0E-08
     mixing beta               =       0.5000
     number of iterations used =            8  plain     mixing
     Exchange-correlation      =  SLA  PW   PBX  PBC ( 1 4 3 4 0)
     EXX-fraction              =        0.00

     Using Berry phase electric field
     In a.u.(Ry)  cartesian system of reference
        0.0000000000
        0.0000000000
        0.0010000000
     In a.u.(Ry)  crystal system of reference
        0.0000000000
        0.0000000000
        0.0010000000
     Number of iterative cycles:   1

     celldm(1)=  10.180000  celldm(2)=   0.000000  celldm(3)=   0.000000
     celldm(4)=   0.000000  celldm(5)=   0.000000  celldm(6)=   0.000000

     crystal axes: (cart. coord. in units of alat)
               a(1) = (   1.000000   0.000000   0.000000 )
               a(2) = (   0.000000   1.000000   0.000000 )
               a(3) = (   0.000000   0.000000   1.000000 )

     reciprocal axes: (cart. coord. in units 2 pi/alat)
               b(1) = (  1.000000  0.000000  0.000000 )
               b(2) = (  0.000000  1.000000  0.000000 )
               b(3) = (  0.000000  0.000000  1.000000 )

     PseudoPot. # 1 for Si read from file:
     /home/rzhang80/mse395/Si.rel-pbe-rrkj.UPF
     MD5 check sum: 0770b7ac3da7dca739fbe4d27da2739d
     Pseudo is Norm-conserving, Zval =  4.0
     Generated by new atomic code, or converted to UPF format
     Using radial grid of 1141 points,  2 beta functions with:
                l(1) =   0
                l(2) =   1

     atomic species   valence    mass     pseudopotential
        Si             4.00    28.08600     Si( 1.00)

     No symmetry found

   Cartesian axes

     site n.     atom                  positions (alat units)
         1           Si  tau(   1) = (   0.0000000   0.0000000   0.5000000  )
         2           Si  tau(   2) = (   0.7500000   0.7500000   0.7500000  )
         3           Si  tau(   3) = (   0.0000000   0.5000000   0.0000000  )
         4           Si  tau(   4) = (   0.7500000   0.2500000   0.2500000  )
         5           Si  tau(   5) = (   0.5000000   0.0000000   0.0000000  )
         6           Si  tau(   6) = (   0.2500000   0.7500000   0.2500000  )
         7           Si  tau(   7) = (   0.5000000   0.5000000   0.5000000  )
         8           Si  tau(   8) = (   0.2500000   0.2500000   0.7500000  )

     number of k points=   125

     Number of k-points >= 100: set verbosity='high' to print them.

     Largest allocated arrays     est. size (Mb)     dimensions
     Largest temporary arrays     est. size (Mb)     dimensions

     Initial potential from superposition of free atoms

     starting charge   31.99559, renormalised to   32.00000
     Starting wfc are random

     Self-consistent Calculation

     iteration #  1     ecut=    30.00 Ry     beta=0.50
     Davidson diagonalization with overlap
     ethr =  1.00E-02,  avg # of iterations =  7.2

     Threshold (ethr) on eigenvalues was too large:
     Diagonalizing with lowered threshold

     Davidson diagonalization with overlap
     ethr =  6.89E-04,  avg # of iterations =  3.3

     Expectation value of exp(iGx): ( 0.22974448215172605     , -1.6389824270669087E-004)   1.0000000000000000
     Electronic Dipole per cell (Ry a.u.)  -3.2692041159373911E-003
     Ionic Dipole per cell (Ry a.u.)   172.76032877949729

[...]

     Expectation value of exp(iGx): ( 0.22833945943339023     ,  3.7829751671677153E-002)   1.0000000000000000
     Electronic Dipole per cell (Ry a.u.)  0.75238209539824030
     Ionic Dipole per cell (Ry a.u.)   172.76032877949731
Electronic Dipole on Cartesian axes
           1  -3.2692041159373911E-003
           2   2.2348743245581396E-002
           3  0.75238209539824030
Ionic Dipole on Cartesian axes
           1   172.76032877949729
           2   172.76032877949729
           3   172.76032877949731

     total energy              =     -63.18272307 Ry
     Harris-Foulkes estimate   =     -63.05657018 Ry
     estimated scf accuracy    <       0.23879889 Ry

[...]

     total energy              =     -63.18374874 Ry
     Harris-Foulkes estimate   =     -63.01008399 Ry
     estimated scf accuracy    <       0.00000028 Ry

     iteration #  7     ecut=    30.00 Ry     beta=0.50
     Davidson diagonalization with overlap
     ethr =  8.88E-10,  avg # of iterations =  2.0

[...]

     Expectation value of exp(iGx): ( 0.21856657919205236     ,  3.8349572488189562E-007)   1.0000000000000000
     Electronic Dipole per cell (Ry a.u.)   8.0406225378958903E-006
     Ionic Dipole per cell (Ry a.u.)   172.76032877949729

     Expectation value of exp(iGx): ( 0.21417560035459685     ,  4.2830127449440959E-002)   1.0000000000000000
     Electronic Dipole per cell (Ry a.u.)  0.90448415975617580
     Ionic Dipole per cell (Ry a.u.)   172.76032877949731
Electronic Dipole on Cartesian axes
           1   4.0786246517267542E-006
           2   8.0406225378958903E-006
           3  0.90448415975617580
Ionic Dipole on Cartesian axes
           1   172.76032877949729
           2   172.76032877949729
           3   172.76032877949731

     End of self-consistent calculation

     Number of k-points >= 100: set verbosity='high' to print the bands.

!    total energy              =     -63.18374711 Ry
     Harris-Foulkes estimate   =     -63.01008229 Ry
     estimated scf accuracy    <          9.2E-09 Ry

     The total energy is the sum of the following terms:

     one-electron contribution =      19.81968304 Ry
     hartree contribution      =       4.29569736 Ry
     xc contribution           =     -19.39362087 Ry
     ewald contribution        =     -67.73184182 Ry

     convergence has been achieved in   7 iterations

     Writing output data file silicon.save

     General routines

   This run was terminated on:  11:12:11  10Apr2018

   JOB DONE.